350207
[1001, 837, 838, 839, 840, 814, 813, 815, 816, 827, 826, 825, 831, 830, 833, 832, 829, 828, 834, 835, 836, 817, 818, 819, 811, 810, 809, 808, 806, 807, 805, 804, 799, 798, 797, 796, 795, 794, 600, 599, 598, 596, 595, 593, 589, 573, 572, 574, 575, 577, 579, 578, 997, 477, 476, 471, 470, 469, 468, 467, 466, 272, 271, 270, 268, 267, 265, 261, 245, 244, 246, 247, 249, 248, 252, 253, 254, 255, 256, 257, 258, 120, 119, 121, 122, 123, 103, 104, 105, 117, 115, 116, 118, 114, 113, 112, 110, 109, 111, 303, 302, 301, 300, 282, 283, 298, 299, 297, 296, 990, 304, 305, 306, 307, 308, 309, 310, 311, 44, 43, 42, 41, 40, 49, 50, 52, 51, 56, 54, 53, 6, 8, 7, 9, 10, 11, 13, 12, 15, 14, 16, 21, 22, 23, 20, 17, 18, 19, 62, 63, 61, 60, 59, 64, 58, 65, 57, 24, 30, 29, 25, 28, 26, 27, 331, 332, 333, 108, 107, 106, 993, 102, 101, 100, 99, 132, 133, 95, 96, 97, 98, 91, 89, 88, 87, 85, 86, 84, 83, 82, 81, 77, 78, 79, 80, 73, 74, 75, 76, 92, 93, 90, 94, 134, 135, 137, 136, 131, 129, 130, 128, 127, 126, 124, 125, 144, 145, 146, 147, 143, 148, 149, 150, 151, 152, 153, 154, 155, 163, 162, 161, 157, 158, 156, 164, 165, 166, 167, 168, 138, 139, 140, 141, 142, 159, 160, 171, 170, 169, 175, 174, 177, 176, 173, 172, 178, 179, 180, 181, 995, 182, 183, 184, 994, 251, 250, 242, 243, 260, 259, 269, 273, 274, 275, 276, 279, 277, 278, 280, 281, 284, 285, 286, 287, 291, 290, 289, 288, 295, 294, 292, 293, 320, 321, 322, 319, 317, 316, 318, 315, 314, 312, 45, 46, 47, 48, 324, 323, 325, 326, 327, 328, 329, 330, 313, 31, 32, 33, 34, 35, 36, 37, 38, 39, 55, 66, 71, 72, 70, 67, 68, 69, 4, 2, 3, 5, 1, 0, 865, 864, 863, 862, 861, 860, 858, 859, 855, 854, 853, 856, 852, 849, 848, 847, 844, 843, 850, 842, 851, 857, 841, 896, 897, 895, 893, 894, 845, 846, 892, 891, 890, 889, 888, 876, 875, 874, 873, 868, 871, 867, 872, 866, 870, 869, 877, 878, 879, 880, 881, 882, 883, 884, 920, 921, 917, 901, 900, 902, 903, 905, 907, 906, 1000, 803, 801, 802, 800, 786, 785, 784, 783, 782, 780, 781, 779, 778, 777, 775, 776, 912, 913, 914, 911, 910, 909, 908, 904, 898, 899, 916, 915, 925, 885, 887, 886, 919, 918, 922, 923, 924, 926, 927, 928, 929, 930, 931, 932, 935, 933, 934, 936, 937, 938, 956, 957, 958, 959, 768, 766, 765, 767, 769, 770, 771, 772, 774, 773, 761, 760, 759, 758, 757, 999, 762, 763, 764, 709, 710, 712, 708, 707, 706, 705, 696, 695, 694, 693, 692, 691, 690, 689, 688, 687, 679, 678, 677, 680, 686, 685, 681, 684, 682, 683, 987, 988, 989, 661, 660, 659, 355, 354, 356, 357, 353, 358, 352, 351, 359, 360, 361, 362, 363, 364, 365, 366, 367, 377, 368, 369, 370, 371, 372, 639, 638, 637, 636, 635, 634, 633, 632, 991, 624, 625, 627, 626, 611, 610, 628, 629, 630, 631, 440, 438, 437, 439, 441, 442, 443, 444, 446, 445, 433, 432, 431, 430, 429, 996, 434, 435, 436, 381, 382, 384, 385, 386, 393, 392, 388, 387, 389, 391, 390, 347, 346, 345, 348, 349, 350, 344, 343, 342, 340, 341, 337, 338, 339, 336, 335, 334, 397, 396, 395, 399, 400, 398, 383, 394, 380, 379, 378, 376, 375, 374, 373, 640, 643, 642, 652, 651, 653, 654, 655, 656, 657, 658, 641, 646, 645, 644, 647, 649, 650, 648, 621, 620, 622, 623, 616, 617, 618, 619, 615, 614, 613, 612, 456, 457, 459, 464, 465, 463, 462, 461, 423, 424, 425, 426, 419, 417, 416, 415, 413, 414, 412, 411, 410, 409, 405, 406, 407, 408, 401, 402, 403, 404, 420, 421, 418, 422, 460, 427, 428, 458, 472, 473, 474, 475, 478, 479, 480, 481, 482, 483, 491, 490, 489, 485, 486, 484, 492, 493, 494, 495, 496, 229, 231, 230, 263, 262, 264, 266, 228, 227, 226, 225, 224, 223, 222, 221, 219, 218, 217, 212, 215, 211, 216, 210, 214, 213, 220, 233, 232, 234, 235, 236, 189, 190, 191, 188, 187, 193, 192, 238, 237, 239, 240, 241, 185, 201, 195, 194, 186, 196, 197, 200, 198, 199, 205, 204, 202, 203, 206, 207, 208, 209, 537, 536, 535, 534, 533, 532, 530, 531, 527, 526, 525, 528, 524, 521, 520, 519, 516, 515, 522, 514, 523, 529, 513, 568, 569, 567, 565, 566, 517, 518, 564, 563, 562, 561, 560, 548, 547, 546, 545, 540, 543, 539, 544, 538, 542, 541, 549, 550, 551, 552, 553, 554, 555, 556, 592, 594, 591, 590, 558, 559, 557, 824, 823, 822, 821, 820, 812, 487, 488, 499, 498, 497, 503, 502, 505, 504, 501, 500, 506, 507, 508, 509, 998, 510, 511, 512, 455, 454, 452, 453, 451, 450, 449, 447, 448, 584, 585, 586, 583, 582, 581, 580, 576, 570, 571, 588, 587, 597, 601, 602, 603, 604, 607, 605, 606, 608, 609, 672, 671, 670, 668, 669, 665, 666, 667, 664, 663, 662, 725, 724, 723, 727, 728, 726, 711, 722, 676, 673, 674, 675, 718, 719, 717, 716, 715, 720, 714, 721, 713, 697, 698, 699, 700, 967, 966, 965, 964, 963, 962, 961, 960, 992, 952, 953, 955, 954, 939, 940, 941, 942, 943, 947, 946, 945, 944, 951, 950, 948, 949, 976, 977, 978, 975, 973, 972, 974, 971, 970, 968, 701, 702, 703, 704, 980, 979, 981, 982, 983, 984, 985, 986, 969, 756, 755, 788, 789, 751, 752, 753, 754, 747, 745, 744, 743, 741, 742, 740, 739, 738, 737, 733, 734, 735, 736, 729, 730, 731, 732, 748, 749, 746, 750, 790, 791, 793, 792, 787]
